;; Original file: adr_112.smt2
(set-logic HORN)
(declare-fun |decr$unknown:2| (Int Int) Bool)
(declare-fun |f$unknown:4| (Int Int) Bool)
(declare-fun |f$unknown:6| (Int Int) Bool)


(assert (forall ((|$V-reftype:17| Int) (|$alpha-3:x| Int))
  (=> (and (= |$V-reftype:17| (- |$alpha-3:x| 1)) true)
      (|decr$unknown:2| |$V-reftype:17| |$alpha-3:x|))))
(assert (forall ((|$knormal:5| Int)
         (|$knormal:3| Int)
         (|$knormal:4| Int)
         (|$alpha-4:n| Int)
         (|$V-reftype:3| Int)
         (decr Int))
  (let ((a!1 (= (not (= 0 |$knormal:5|))
                (or (not (= 0 |$knormal:3|)) (not (= 0 |$knormal:4|))))))
  (let ((a!2 (and a!1
                  (= (not (= 0 |$knormal:4|)) (<= |$alpha-4:n| 0))
                  (= (not (= 0 |$knormal:3|)) (>= |$alpha-4:n| 3))
                  (not (= 0 |$knormal:5|))
                  true
                  (|decr$unknown:2| |$V-reftype:3| decr))))
    (=> a!2 (|f$unknown:4| |$V-reftype:3| decr))))))
(assert (forall ((|$knormal:1| Int)
         (|$alpha-2:x| Int)
         (|$V-reftype:15| Int)
         (|$knormal:2| Int))
  (let ((a!1 (and (= (not (= 0 |$knormal:1|)) (> |$alpha-2:x| 0))
                  (= |$V-reftype:15| |$knormal:2|)
                  (not (= 0 |$knormal:1|))
                  true
                  (|f$unknown:4| |$knormal:2| |$alpha-2:x|))))
    (=> a!1 (|f$unknown:6| |$V-reftype:15| |$alpha-2:x|)))))
(assert (forall ((|$knormal:1| Int)
         (|$alpha-2:x| Int)
         (|$V-reftype:16| Int))
  (let ((a!1 (and (= (not (= 0 |$knormal:1|)) (> |$alpha-2:x| 0))
                  (= |$V-reftype:16| 1)
                  (not (not (= 0 |$knormal:1|)))
                  true)))
    (=> a!1 (|f$unknown:6| |$V-reftype:16| |$alpha-2:x|)))))
(assert (forall ((|$knormal:5| Int)
         (|$knormal:3| Int)
         (|$knormal:4| Int)
         (|$alpha-4:n| Int)
         (|$knormal:10| Int)
         (|$knormal:8| Int))
  (let ((a!1 (= (not (= 0 |$knormal:5|))
                (or (not (= 0 |$knormal:3|)) (not (= 0 |$knormal:4|))))))
  (let ((a!2 (and a!1
                  (= (not (= 0 |$knormal:4|)) (<= |$alpha-4:n| 0))
                  (= (not (= 0 |$knormal:3|)) (>= |$alpha-4:n| 3))
                  (= (not (= 0 |$knormal:10|)) (> |$knormal:8| 0))
                  (not (not (= 0 |$knormal:10|)))
                  (not (= 0 |$knormal:5|))
                  (|f$unknown:6| |$knormal:8| |$alpha-4:n|))))
    (=> a!2 false)))))
(check-sat)
